(set-logic QF_SLIA)
(declare-fun var0 () String)
(assert (not (str.in_re var0 (re.++ ((_ re.loop 9 288) (re.++ (re.union (str.to_re "l") (re.union (str.to_re "9") (re.union (str.to_re "LV") (str.to_re "~!G")))) (re.++ (re.union (str.to_re "B") (re.union (str.to_re "D") (re.union (str.to_re "*f\u0022") (str.to_re "$")))) (re.++ (re.union (str.to_re "F.") (re.union (str.to_re "B;k") (re.union (str.to_re "\\y") (str.to_re "ttr")))) (re.union (str.to_re "L!") (re.union (str.to_re "iw") (re.union (str.to_re "VQw") (str.to_re "T")))))))) (re.++ ((_ re.loop 10 80) (re.++ (re.union (str.to_re "8!") (re.union (str.to_re "+9") (re.union (str.to_re "NMs") (str.to_re "=")))) (re.++ (re.union (str.to_re "j") (re.union (str.to_re "6") (re.union (str.to_re "=X") (str.to_re "Bw")))) (re.++ (re.union (str.to_re "<(") (re.union (str.to_re "i") (re.union (str.to_re "i") (str.to_re "q=h")))) (re.union (str.to_re "^") (re.union (str.to_re "aZ}") (re.union (str.to_re "'*") (str.to_re ">s")))))))) (re.++ ((_ re.loop 12 250) (re.++ (re.union (str.to_re "Dn<") (re.union (str.to_re "zf+") (re.union (str.to_re "{") (str.to_re "M")))) (re.++ (re.union (str.to_re "c$_") (re.union (str.to_re "k+~") (re.union (str.to_re "R~") (str.to_re "_")))) (re.++ (re.union (str.to_re "Pe") (re.union (str.to_re "f^?") (re.union (str.to_re "zB") (str.to_re "*")))) (re.union (str.to_re "r") (re.union (str.to_re "wz`") (re.union (str.to_re "rQ<") (str.to_re "l")))))))) ((_ re.loop 18 442) (re.++ (re.union (str.to_re "ej)") (re.union (str.to_re ")V") (re.union (str.to_re "T]") (str.to_re "w")))) (re.++ (re.union (str.to_re "y4") (re.union (str.to_re "w,k") (re.union (str.to_re "(;") (str.to_re "i!W")))) (re.++ (re.union (str.to_re "g") (re.union (str.to_re "o") (re.union (str.to_re "8") (str.to_re "k")))) (re.union (str.to_re "a,2") (re.union (str.to_re ")H") (re.union (str.to_re "#") (str.to_re ".W,"))))))))))))))
(assert (not (str.in_re var0 (re.++ ((_ re.loop 6 215) (re.++ (re.union (str.to_re "]*") (re.union (str.to_re "&w;") (re.union (str.to_re "'Ww") (str.to_re "!_")))) (re.++ (re.union (str.to_re "B") (re.union (str.to_re "[") (re.union (str.to_re "=n") (str.to_re "<D")))) (re.++ (re.union (str.to_re "?J5") (re.union (str.to_re "Cy") (re.union (str.to_re ",[p") (str.to_re "^j")))) (re.union (str.to_re "'") (re.union (str.to_re "`Xv") (re.union (str.to_re "p5") (str.to_re "M{")))))))) (re.++ ((_ re.loop 17 635) (re.++ (re.union (str.to_re "%z") (re.union (str.to_re "}") (re.union (str.to_re "*)") (str.to_re "ZR")))) (re.++ (re.union (str.to_re ",r") (re.union (str.to_re "lK~") (re.union (str.to_re "+aQ") (str.to_re "i")))) (re.++ (re.union (str.to_re "GC^") (re.union (str.to_re "A") (re.union (str.to_re "'G") (str.to_re "G")))) (re.union (str.to_re "a#?") (re.union (str.to_re "p\u0022N") (re.union (str.to_re "<ms") (str.to_re ".X")))))))) (re.++ ((_ re.loop 10 118) (re.++ (re.union (str.to_re "(") (re.union (str.to_re "Q") (re.union (str.to_re "Z") (str.to_re "Y(")))) (re.++ (re.union (str.to_re "J)=") (re.union (str.to_re "/") (re.union (str.to_re "4") (str.to_re "#3")))) (re.++ (re.union (str.to_re "_J") (re.union (str.to_re "`_a") (re.union (str.to_re "!o)") (str.to_re "-?~")))) (re.union (str.to_re "\\t") (re.union (str.to_re "n") (re.union (str.to_re "4r]") (str.to_re "x+")))))))) ((_ re.loop 7 143) (re.++ (re.union (str.to_re "p\u0022f") (re.union (str.to_re "q8?") (re.union (str.to_re "l") (str.to_re "CI!")))) (re.++ (re.union (str.to_re "!S") (re.union (str.to_re "n") (re.union (str.to_re "<'4") (str.to_re "_+")))) (re.++ (re.union (str.to_re "K") (re.union (str.to_re "F0#") (re.union (str.to_re "AC=") (str.to_re "VOr")))) (re.union (str.to_re "GA:") (re.union (str.to_re "m.") (re.union (str.to_re "!Fm") (str.to_re "5|c"))))))))))))))
(assert (not (str.in_re var0 (re.++ (re.* re.allchar) (re.++ (re.union (str.to_re "<") (re.union (str.to_re ">") (re.union (str.to_re "'") (re.union (str.to_re "\u0022") (str.to_re "&"))))) (re.* re.allchar))))))
(assert (<= 50 (str.len var0)))
(check-sat)
(get-model)
